data;

param nb_p := 27;
param nb_d := 20;
param nb_h := 21;
param autonomy_max := 1764;
param recharge_time := 3;

param delivery_time := 1 194
2 240
3 188
4 175
5 122
6 65
7 19
8 87
9 253
10 64
11 223
12 70
13 251
14 131
15 135
16 151
17 178
18 225
19 228
20 249
21 357;

param orders := 1 2
2 2
3 4
4 4
5 4
6 5
7 6
8 6
9 6
10 8
11 8
12 8
13 9
14 9
15 10
16 10
17 11
18 12
19 15
20 16
21 16
22 18
23 18
24 20
25 20
26 21
27 21;

end;
